unsat
(define-fun skel ((n207 Bool) (n254 Bool) (n325 Bool) (n215 Bool)) Bool (and n215 (or (and n207 (and n254 n325)) (not (or n325 (and n207 n254))))))
33.49user 0.02system 0:33.52elapsed 99%CPU (0avgtext+0avgdata 75376maxresident)k
0inputs+8outputs (0major+13554minor)pagefaults 0swaps
